\ Model SOCP
\ LP format - for model browsing. Use MPS format to capture full model detail.
Minimize
  d_0 + d_1 + d_2 + d_3 + d_4
Subject To
 R0: - x_1 + dx_0 = -50
 R1: - y_1 + dy_0 = -50
 R2: x_1 - x_2 + dx_1 = 0
 R3: y_1 - y_2 + dy_1 = 0
 R4: x_2 - x_3 + dx_2 = 0
 R5: y_2 - y_3 + dy_2 = 0
 R6: x_3 - x_4 + dx_3 = 0
 R7: y_3 - y_4 + dy_3 = 0
 R8: x_4 + dx_4 = 50
 R9: y_4 + dy_4 = 50
 R10: - x_1 + rx_1 = -90.9280275381257
 R11: - y_1 + ry_1 = -44.84400080686692
 R12: - x_2 + rx_2 = -67.57520922222055
 R13: - y_2 + ry_2 = -13.10368424731399
 R14: - x_3 + rx_3 = -39.40953688856892
 R15: - y_3 + ry_3 = -23.25692923595262
 R16: - x_4 + rx_4 = -8.603856670678766
 R17: - y_4 + ry_4 = -50.86457940354175
 qc0: [ d_0 ^2 - dx_0 ^2 - dy_0 ^2 ] >= 0
 qc1: [ d_1 ^2 - dx_1 ^2 - dy_1 ^2 ] >= 0
 qc2: [ d_2 ^2 - dx_2 ^2 - dy_2 ^2 ] >= 0
 qc3: [ d_3 ^2 - dx_3 ^2 - dy_3 ^2 ] >= 0
 qc4: [ d_4 ^2 - dx_4 ^2 - dy_4 ^2 ] >= 0
 qc5: [ rx_1 ^2 + ry_1 ^2 ] <= 25
 qc6: [ rx_2 ^2 + ry_2 ^2 ] <= 100
 qc7: [ rx_3 ^2 + ry_3 ^2 ] <= 25
 qc8: [ rx_4 ^2 + ry_4 ^2 ] <= 225
Bounds
 -7.396143329321234 <= x_1 <= 96.9280275381257
 2.103684247313986 <= y_1 <= 66.86457940354175
 -7.396143329321234 <= x_2 <= 96.9280275381257
 2.103684247313986 <= y_2 <= 66.86457940354175
 -7.396143329321234 <= x_3 <= 96.9280275381257
 2.103684247313986 <= y_3 <= 66.86457940354175
 -7.396143329321234 <= x_4 <= 96.9280275381257
 2.103684247313986 <= y_4 <= 66.86457940354175
 dx_0 free
 dy_0 free
 dx_1 free
 dy_1 free
 dx_2 free
 dy_2 free
 dx_3 free
 dy_3 free
 dx_4 free
 dy_4 free
 rx_1 free
 ry_1 free
 rx_2 free
 ry_2 free
 rx_3 free
 ry_3 free
 rx_4 free
 ry_4 free
End
